Date,Open,High,Low,Close,Volume,OpenInt
2017-08-16,41.31,41.31,41.31,41.31,0,0
2017-08-17,41.2,41.2,34.96,36.09,0,0
2017-08-18,36.05,36.05,34.07,36.05,0,0
2017-08-21,36.09,38.36,36.09,38.25,0,0
2017-08-22,38.59,38.59,31.78,35.75,0,0
2017-08-23,35.75,35.75,35.75,35.75,0,0
2017-08-24,35.75,35.75,29.51,32.03,0,0
2017-08-25,33.21,35.14,30.65,32.05,0,0
2017-08-28,32.89,32.89,31.37,31.78,0,0
2017-08-29,31.76,31.76,30.28,31.37,0,0
2017-08-30,31.76,31.76,29.53,31.76,0,0
2017-08-31,31.76,34.03,29.51,34.03,0,0
2017-09-01,32.28,32.87,32.28,32.87,0,0
2017-09-04,32.87,33.14,32.87,33.14,0,0
2017-09-05,33.14,33.14,33.14,33.14,0,0
2017-09-06,33.14,33.14,32.92,32.92,0,0
2017-09-07,34,34,34,34,0,0
2017-09-08,34,34.05,33.6,33.6,0,0
2017-09-11,33.6,33.6,32.05,33.6,0,0
2017-09-12,33.6,33.6,33.6,33.6,0,0
2017-09-13,33.6,38.59,32.05,38.59,0,0
2017-09-14,38.57,38.57,38.52,38.57,0,0
2017-09-15,38.57,38.57,38.57,38.57,0,0
2017-09-18,38.54,38.54,36.77,36.77,0,0
2017-09-19,38.54,38.54,38.54,38.54,0,0
2017-09-20,38.54,38.54,38.54,38.54,0,0
2017-09-21,38.54,38.54,35.37,38.54,0,0
2017-09-22,38.54,38.54,35.37,38.54,0,0
2017-09-25,38.52,38.54,34.96,38.54,0,0
2017-09-26,38.54,38.54,38.54,38.54,0,0
2017-09-27,38.54,38.54,38.54,38.54,0,0
2017-09-28,38.54,38.54,38.54,38.54,0,0
2017-09-29,38.54,38.54,38.54,38.54,0,0
2017-10-02,38.57,38.57,38.54,38.54,0,0
2017-10-03,38.54,38.54,38.54,38.54,0,0
2017-10-04,38.54,38.54,38.54,38.54,0,0
2017-10-05,38.57,38.57,36.71,38.54,0,0
2017-10-06,38.54,38.54,38.54,38.54,0,0
2017-10-09,38.54,38.54,38.54,38.54,0,0
2017-10-10,38.54,38.54,37.23,38.54,0,0
2017-10-11,38.54,38.54,38.54,38.54,0,0
2017-10-12,37.43,37.43,37.43,37.43,0,0
2017-10-13,37.43,38.48,37,38.48,0,0
2017-10-16,37.23,38.18,31.01,36.32,0,0
2017-10-17,38.52,38.52,35.55,36.32,0,0
2017-10-18,38.52,38.52,36.55,36.55,0,0
2017-10-19,36.52,36.55,36.52,36.55,0,0
2017-10-20,38.52,38.52,36.55,36.55,0,0
2017-10-23,38.52,38.52,38.52,38.52,0,0
2017-10-24,38.52,38.52,38.52,38.52,0,0
2017-10-25,38.52,38.52,38.52,38.52,0,0
2017-10-26,38.52,38.52,38.52,38.52,0,0
2017-10-27,38.52,38.52,38.52,38.52,0,0
2017-10-30,38.52,38.52,38.52,38.52,0,0
2017-10-31,38.52,38.52,36.55,38.52,0,0
2017-11-02,38.52,38.52,38.52,38.52,0,0
2017-11-03,38.52,38.52,37.39,37.39,0,0
2017-11-06,37.39,37.82,37.39,37.82,0,0
2017-11-07,36.75,36.75,36.75,36.75,0,0
2017-11-08,36.75,36.75,36.75,36.75,0,0
2017-11-09,36.75,36.75,36.75,36.75,0,0
2017-11-10,36.75,36.75,36.75,36.75,0,0
2017-11-13,36.75,36.75,36.75,36.75,0,0
2017-11-14,36.75,36.75,36.75,36.75,0,0
2017-11-15,36.75,36.75,35,36.75,0,0
2017-11-16,36.75,36.75,36.75,36.75,0,0
2017-11-17,36.75,36.75,36.75,36.75,0,0
2017-11-20,36.75,36.77,36.75,36.77,0,0
2017-11-21,36.77,36.77,35,35,0,0
2017-11-22,34.84,34.84,34.84,34.84,0,0
2017-11-23,36.77,36.77,35.19,35.19,0,0
2017-11-24,36.77,36.77,35.19,35.19,0,0
2017-11-27,36.77,36.77,33.53,34.33,0,0
2017-11-28,37.33,37.33,34.33,34.33,0,0
2017-11-29,37.33,37.33,34.33,34.33,0,0
2017-11-30,37.33,37.33,34.33,34.33,0,0
2017-12-01,37.33,37.33,34.33,34.33,0,0
2017-12-04,34.33,34.33,34.33,34.33,0,0
2017-12-05,37.33,37.33,34.33,34.33,0,0
2017-12-06,37.33,37.33,32.95,32.95,0,0
2017-12-07,32.95,32.95,31.1,32.81,0,0
2017-12-08,32.95,32.95,30.67,30.67,0,0
2017-12-11,31.1,31.15,31.1,31.15,0,0
2017-12-12,31.17,32.26,31.17,32.26,0,0
2017-12-13,32.21,32.21,31.1,31.68,0,0
2017-12-14,33.41,33.41,29.95,29.95,0,0
2017-12-15,29.98,29.98,29.98,29.98,0,0
2017-12-18,29.95,29.95,29.42,29.42,0,0
2017-12-19,29.7,29.7,28.34,28.57,0,0
2017-12-20,28.34,30.18,27.65,30.18,0,0
2017-12-21,31.68,31.68,30.18,30.18,0,0
2017-12-22,30.18,31.34,30.18,31.34,0,0
2017-12-28,33.41,33.41,33.41,33.41,0,0
2018-01-04,34.1,34.1,34.1,34.1,0,0
2018-01-17,34.1,34.1,34.1,34.1,0,0
2018-01-18,34.1,34.1,32.49,32.49,0,0
2018-01-19,32.49,32.49,29.03,29.03,0,0
2018-01-24,29.72,29.72,29.26,29.26,0,0
2018-01-25,29.49,30.41,29.26,29.26,0,0
2018-01-26,29.26,29.26,29.26,29.26,0,0
2018-01-29,29.26,30.41,29.26,29.95,0,0
2018-01-30,29.95,30.64,29.95,30.64,0,0
2018-01-31,30.64,30.64,30.64,30.64,0,0
2018-02-01,30.87,31.57,30.87,31.57,0,0
2018-02-06,31.34,31.34,30.18,30.18,0,0
2018-02-12,29.95,29.95,29.95,29.95,0,0
2018-02-20,31.34,31.34,31.1,31.1,0,0
2018-02-21,31.1,31.1,30.87,30.87,0,0
2018-02-23,30.87,30.87,30.87,30.87,0,0
2018-02-26,31.34,31.34,31.34,31.34,0,0
2018-03-05,32.26,32.26,32.26,32.26,0,0
2018-03-06,32.26,32.26,32.26,32.26,0,0
2018-03-07,32.26,32.26,32.26,32.26,0,0
2018-03-08,32.26,32.26,32.26,32.26,0,0
2018-03-09,32.26,32.26,32.26,32.26,0,0
2018-03-12,32.26,32.26,32.26,32.26,0,0
2018-03-13,32.26,32.26,32.26,32.26,0,0
2018-03-14,32.26,32.26,32.26,32.26,0,0
2018-03-15,32.26,34.33,32.26,34.33,0,0
2018-03-16,34.33,34.56,34.33,34.56,0,0
2018-03-19,34.33,38.02,34.33,38.02,0,0
2018-03-20,37.79,37.79,36.4,36.4,0,0
2018-03-21,37.56,37.56,37.56,37.56,0,0
2018-03-22,37.56,37.56,35.02,35.02,0,0
2018-03-23,35.02,35.02,33.41,33.41,0,0
2018-03-26,33.41,33.41,33.41,33.41,0,0
2018-03-27,33.41,33.41,33.41,33.41,0,0
2018-03-28,33.41,33.41,30.64,31.34,0,0
